135362
63,72,44,45,53,79,61,69,13,25,35,65,70,20,47,23,30,18,4,21,67,58,52,7,82,78,5,60,14,68,24,41,27,77,54,22,11,2,56,42,59,46,80,71,50,33,48,1,43,34,29,37,15,32,26,6,55,16,10,39,73,57,76,8,31,74,81,3,64,49,62,38,51,40,19,75,66,12,17,36,0,9,28